7
2147483647 99 29 43 12 42 83 
99 2147483647 7 92 89 35 65 
29 7 2147483647 63 86 76 25 
43 92 63 2147483647 73 44 43 
12 89 86 73 2147483647 72 28 
42 35 76 44 72 2147483647 97 
83 65 25 43 28 97 2147483647 
